50 200
1 1
8 7
11 2
3 4
6 7
13 3
14 1
13 4
12 4
4 6
11 5
14 7
3 6
6 4
11 7
13 3
14 3
13 6
12 6
6 1
9 1
12 6
11 3
7 3
11 5
11 7
8 1
2 6
14 6
1 6
12 1
4 3
4 4
9 4
1 1
7 2
12 1
11 6
13 6
2 3
14 3
6 1
1 1
2 2
12 2
1 4
3 7
4 7
12 1
9 2
